### ---preamble--- ###
log test.log
units micro 
atom_style hybrid sphere paramagnet angle
boundary p p p 
 
neighbor 1.0 bin 
#neigh_modify every 1 delay 1 check yes
pair_style hybrid lj/cut/dipole/cut 1 20 
bond_style fene
#angle_style harmonic
special_bonds fene angle no
### ---Create Particles and Region--- ###
read_data test.lmpdata
group Atoms type 1 
#mass * 1

### ---Variables--- ###

## magnetic field
variable Bmag atom 2.6614538978577816e-06
variable freq atom 1.0
variable theta atom 1.5707963267948966
variable phi atom 90.0

variable fieldx atom v_Bmag*cos(v_freq*time*2*PI+v_phi)*sin(v_theta)
variable fieldy atom v_Bmag*sin(v_freq*time*2*PI+v_phi)*sin(v_theta)
variable fieldz atom v_Bmag*cos(v_theta)

### ---Fixes--- ###

fix 	1 Atoms setdipole v_fieldx v_fieldy v_fieldz 0
fix 	2 Atoms bd 300 0.001 56670 

fix     3 Atoms addforce 0 0 -0.0 
#fix 	6 Atoms wall/lj126 zlo EDGE 0.01 1.247258205396475  1.4 zhi EDGE 0.01 1.247258205396475  1.4  

### ---Run Commands--- ###
timestep 	1000.0 
dump 	3 all custom 33 test.trj id type x	 y	 z	mux	muy	muz
thermo_style 	custom step atoms
thermo 	100  
run 	60000
